N: 5000
R: 1000
Capacities: 1225891
------
Total value: 1225891
Total weight: 1225891
Packed Items: [0, 1, 2, 3, 4, 5, 6, 7, 8, 9, 10, 11, 12, 13, 14, 15, 16, 17, 18, 19, 20, 21, 22, 23, 24, 25, 26, 27, 28, 29, 30, 31, 32, 33, 34, 35, 36, 37, 38, 39, 40, 41, 42, 43, 44, 45, 46, 47, 48, 49, 50, 51, 52, 53, 54, 55, 56, 57, 58, 59, 60, 61, 62, 63, 64, 65, 66, 67, 68, 69, 70, 71, 72, 73, 74, 75, 76, 77, 78, 79, 80, 81, 82, 83, 84, 85, 86, 87, 88, 89, 90, 91, 92, 93, 94, 95, 96, 97, 98, 99, 100, 101, 102, 103, 104, 105, 106, 107, 108, 109, 110, 111, 112, 113, 114, 115, 116, 117, 118, 119, 120, 121, 122, 123, 124, 125, 126, 127, 128, 129, 130, 131, 132, 133, 134, 135, 136, 137, 138, 139, 140, 141, 142, 143, 144, 145, 146, 147, 148, 149, 150, 151, 152, 153, 154, 155, 156, 157, 158, 159, 160, 161, 162, 163, 164, 165, 166, 167, 168, 169, 170, 171, 172, 173, 174, 175, 176, 177, 178, 179, 180, 181, 182, 183, 184, 185, 186, 187, 188, 189, 190, 191, 192, 193, 194, 195, 196, 197, 198, 199, 200, 201, 202, 203, 204, 205, 206, 207, 208, 209, 210, 211, 212, 213, 214, 215, 216, 217, 218, 219, 220, 221, 222, 223, 224, 225, 226, 227, 228, 229, 230, 231, 232, 233, 234, 235, 236, 237, 238, 239, 240, 241, 242, 243, 244, 245, 246, 247, 248, 249, 250, 251, 252, 253, 254, 255, 256, 257, 258, 259, 260, 261, 262, 263, 264, 265, 266, 267, 268, 269, 270, 271, 272, 273, 274, 275, 276, 277, 278, 279, 280, 281, 282, 283, 284, 285, 286, 287, 288, 289, 290, 291, 292, 293, 294, 295, 296, 297, 298, 299, 300, 301, 302, 303, 304, 305, 306, 307, 308, 309, 310, 311, 312, 313, 314, 315, 316, 317, 318, 319, 320, 321, 322, 323, 324, 325, 326, 327, 328, 329, 330, 331, 332, 333, 334, 335, 336, 337, 338, 339, 340, 341, 342, 343, 344, 345, 346, 347, 348, 349, 350, 351, 352, 353, 354, 355, 356, 357, 358, 359, 360, 361, 362, 363, 364, 365, 366, 367, 368, 369, 370, 371, 372, 373, 374, 375, 376, 377, 378, 379, 380, 381, 382, 383, 384, 385, 386, 387, 388, 389, 390, 391, 392, 393, 394, 395, 396, 397, 398, 399, 400, 401, 402, 403, 404, 405, 406, 407, 408, 409, 410, 411, 412, 413, 414, 415, 416, 417, 418, 419, 420, 421, 422, 423, 424, 425, 426, 427, 428, 429, 430, 431, 432, 433, 434, 435, 436, 437, 438, 439, 440, 441, 442, 443, 444, 445, 446, 447, 448, 449, 450, 451, 452, 453, 454, 455, 456, 457, 458, 459, 460, 461, 462, 463, 464, 465, 466, 467, 468, 469, 470, 471, 472, 473, 474, 475, 476, 477, 478, 479, 480, 481, 482, 483, 484, 485, 486, 487, 488, 489, 490, 491, 492, 493, 494, 495, 496, 497, 498, 499, 500, 501, 502, 503, 504, 505, 506, 507, 508, 509, 510, 511, 512, 513, 514, 515, 516, 517, 518, 519, 520, 521, 522, 523, 524, 525, 526, 527, 528, 529, 530, 531, 532, 533, 534, 535, 536, 537, 538, 539, 540, 541, 542, 543, 544, 545, 546, 547, 548, 549, 550, 551, 552, 553, 554, 555, 556, 557, 558, 559, 560, 561, 562, 563, 564, 565, 566, 567, 568, 569, 570, 571, 572, 573, 574, 575, 576, 577, 578, 579, 580, 581, 582, 583, 584, 585, 586, 587, 588, 589, 590, 591, 592, 593, 594, 595, 596, 597, 598, 599, 600, 601, 602, 603, 604, 605, 606, 607, 608, 609, 610, 611, 612, 613, 614, 615, 616, 617, 618, 619, 620, 621, 622, 623, 624, 625, 626, 627, 628, 629, 630, 631, 632, 633, 634, 635, 636, 637, 638, 639, 640, 641, 642, 643, 644, 645, 646, 647, 648, 649, 650, 651, 652, 653, 654, 655, 656, 657, 658, 659, 660, 661, 662, 663, 664, 665, 666, 667, 668, 669, 670, 671, 672, 673, 674, 675, 676, 677, 678, 679, 680, 681, 682, 683, 684, 685, 686, 687, 688, 689, 690, 691, 692, 693, 694, 695, 696, 697, 698, 699, 700, 701, 702, 703, 704, 705, 706, 707, 708, 709, 710, 711, 712, 713, 714, 715, 716, 717, 718, 719, 720, 721, 722, 723, 724, 725, 726, 727, 728, 729, 730, 731, 732, 733, 734, 735, 736, 737, 738, 739, 740, 741, 742, 743, 744, 745, 746, 747, 748, 749, 750, 751, 752, 753, 754, 755, 756, 757, 758, 759, 760, 761, 762, 763, 764, 765, 766, 767, 768, 769, 770, 771, 772, 773, 774, 775, 776, 777, 778, 779, 780, 781, 782, 783, 784, 785, 786, 787, 788, 789, 790, 791, 792, 793, 794, 795, 796, 797, 798, 799, 800, 801, 802, 803, 804, 805, 806, 807, 808, 809, 810, 811, 812, 813, 814, 815, 816, 817, 818, 819, 820, 821, 822, 823, 824, 825, 826, 827, 828, 829, 830, 831, 832, 833, 834, 835, 836, 837, 838, 839, 840, 841, 842, 843, 844, 845, 846, 847, 848, 849, 850, 851, 852, 853, 854, 855, 856, 857, 858, 859, 860, 861, 862, 863, 864, 865, 866, 867, 868, 869, 870, 871, 872, 873, 874, 875, 876, 877, 878, 879, 880, 881, 882, 883, 884, 885, 886, 887, 888, 889, 890, 891, 892, 893, 894, 895, 896, 897, 898, 899, 900, 901, 902, 903, 904, 905, 906, 907, 908, 909, 910, 911, 912, 913, 914, 915, 916, 917, 918, 919, 920, 921, 922, 923, 924, 925, 926, 927, 928, 929, 930, 931, 932, 933, 934, 935, 936, 937, 938, 939, 940, 941, 942, 943, 944, 945, 946, 947, 948, 949, 950, 951, 952, 953, 954, 955, 956, 957, 958, 959, 960, 961, 962, 963, 964, 965, 966, 967, 968, 969, 970, 971, 972, 973, 974, 975, 976, 977, 978, 979, 980, 981, 982, 983, 984, 985, 986, 987, 988, 989, 990, 991, 992, 993, 994, 995, 996, 997, 998, 999, 1000, 1001, 1002, 1003, 1004, 1005, 1006, 1007, 1008, 1009, 1010, 1011, 1012, 1013, 1014, 1015, 1016, 1017, 1018, 1019, 1020, 1021, 1022, 1023, 1024, 1025, 1026, 1027, 1028, 1029, 1030, 1031, 1032, 1033, 1034, 1035, 1036, 1037, 1038, 1039, 1040, 1041, 1042, 1043, 1044, 1045, 1046, 1047, 1048, 1049, 1050, 1051, 1052, 1053, 1054, 1055, 1056, 1057, 1058, 1059, 1060, 1061, 1062, 1063, 1064, 1065, 1066, 1067, 1068, 1069, 1070, 1071, 1072, 1073, 1074, 1075, 1076, 1077, 1078, 1079, 1080, 1081, 1082, 1083, 1084, 1085, 1086, 1087, 1088, 1089, 1090, 1091, 1092, 1093, 1094, 1095, 1096, 1097, 1098, 1099, 1100, 1101, 1102, 1103, 1104, 1105, 1106, 1107, 1108, 1109, 1110, 1111, 1112, 1113, 1114, 1115, 1116, 1117, 1118, 1119, 1120, 1121, 1122, 1123, 1124, 1125, 1126, 1127, 1128, 1129, 1130, 1131, 1132, 1133, 1134, 1135, 1136, 1137, 1138, 1139, 1140, 1141, 1142, 1143, 1144, 1145, 1146, 1147, 1148, 1149, 1150, 1151, 1152, 1153, 1154, 1155, 1156, 1157, 1158, 1159, 1160, 1161, 1162, 1163, 1164, 1165, 1166, 1167, 1168, 1169, 1170, 1171, 1172, 1173, 1174, 1175, 1176, 1177, 1178, 1179, 1180, 1181, 1182, 1183, 1184, 1185, 1186, 1187, 1188, 1189, 1190, 1191, 1192, 1193, 1194, 1195, 1196, 1197, 1198, 1199, 1200, 1201, 1202, 1203, 1204, 1205, 1206, 1207, 1208, 1209, 1210, 1211, 1212, 1213, 1214, 1215, 1216, 1217, 1218, 1219, 1220, 1221, 1222, 1223, 1224, 1225, 1226, 1227, 1228, 1229, 1230, 1231, 1232, 1233, 1234, 1235, 1236, 1237, 1238, 1239, 1240, 1241, 1242, 1243, 1244, 1245, 1246, 1247, 1248, 1249, 1250, 1251, 1252, 1253, 1254, 1255, 1256, 1257, 1258, 1259, 1260, 1261, 1262, 1263, 1264, 1265, 1266, 1267, 1268, 1269, 1270, 1271, 1272, 1273, 1274, 1275, 1276, 1277, 1278, 1279, 1280, 1281, 1282, 1283, 1284, 1285, 1286, 1287, 1288, 1289, 1290, 1291, 1292, 1293, 1294, 1295, 1296, 1297, 1298, 1299, 1300, 1301, 1302, 1303, 1304, 1305, 1306, 1307, 1308, 1309, 1310, 1311, 1312, 1313, 1314, 1315, 1316, 1317, 1318, 1319, 1320, 1321, 1322, 1323, 1324, 1325, 1326, 1327, 1328, 1329, 1330, 1331, 1332, 1333, 1334, 1335, 1336, 1337, 1338, 1339, 1340, 1341, 1342, 1343, 1344, 1345, 1346, 1347, 1348, 1349, 1350, 1351, 1352, 1353, 1354, 1355, 1356, 1357, 1358, 1359, 1360, 1361, 1362, 1363, 1364, 1365, 1366, 1367, 1368, 1369, 1370, 1371, 1372, 1373, 1374, 1375, 1376, 1377, 1378, 1379, 1380, 1381, 1382, 1383, 1384, 1385, 1386, 1387, 1388, 1389, 1390, 1391, 1392, 1393, 1394, 1395, 1396, 1397, 1398, 1399, 1400, 1401, 1402, 1403, 1404, 1405, 1406, 1407, 1408, 1409, 1410, 1411, 1412, 1413, 1414, 1415, 1416, 1417, 1418, 1419, 1420, 1421, 1422, 1423, 1424, 1425, 1426, 1427, 1428, 1429, 1430, 1431, 1432, 1433, 1434, 1435, 1436, 1437, 1438, 1439, 1440, 1441, 1442, 1443, 1444, 1445, 1446, 1447, 1448, 1449, 1450, 1451, 1452, 1453, 1454, 1455, 1456, 1457, 1458, 1459, 1460, 1461, 1462, 1463, 1464, 1465, 1466, 1467, 1468, 1469, 1470, 1471, 1472, 1473, 1474, 1475, 1476, 1477, 1478, 1479, 1480, 1481, 1482, 1483, 1484, 1485, 1486, 1487, 1488, 1489, 1490, 1491, 1492, 1493, 1494, 1495, 1496, 1497, 1498, 1499, 1500, 1501, 1502, 1503, 1504, 1505, 1506, 1507, 1508, 1509, 1510, 1511, 1512, 1513, 1514, 1515, 1516, 1517, 1518, 1519, 1520, 1521, 1522, 1523, 1524, 1525, 1526, 1527, 1528, 1529, 1530, 1531, 1532, 1533, 1534, 1535, 1536, 1537, 1538, 1539, 1540, 1541, 1542, 1543, 1544, 1545, 1546, 1547, 1548, 1549, 1550, 1551, 1552, 1553, 1554, 1555, 1556, 1557, 1558, 1559, 1560, 1561, 1562, 1563, 1564, 1565, 1566, 1567, 1568, 1569, 1570, 1571, 1572, 1573, 1574, 1575, 1576, 1577, 1578, 1579, 1580, 1581, 1582, 1583, 1584, 1585, 1586, 1587, 1588, 1589, 1590, 1591, 1592, 1593, 1594, 1595, 1596, 1597, 1598, 1599, 1600, 1601, 1602, 1603, 1604, 1605, 1606, 1607, 1608, 1609, 1610, 1611, 1612, 1613, 1614, 1615, 1616, 1617, 1618, 1619, 1620, 1621, 1622, 1623, 1624, 1625, 1626, 1627, 1628, 1629, 1630, 1631, 1632, 1633, 1634, 1635, 1636, 1637, 1638, 1639, 1640, 1641, 1642, 1643, 1644, 1645, 1646, 1647, 1648, 1649, 1650, 1651, 1652, 1653, 1654, 1655, 1656, 1657, 1658, 1659, 1660, 1661, 1662, 1663, 1664, 1665, 1666, 1667, 1668, 1669, 1670, 1671, 1672, 1673, 1674, 1675, 1676, 1677, 1678, 1679, 1680, 1681, 1682, 1683, 1684, 1685, 1686, 1687, 1688, 1689, 1690, 1691, 1692, 1693, 1694, 1695, 1696, 1697, 1698, 1699, 1700, 1701, 1702, 1703, 1704, 1705, 1706, 1707, 1708, 1709, 1710, 1711, 1712, 1713, 1714, 1715, 1716, 1717, 1718, 1719, 1720, 1721, 1722, 1723, 1724, 1725, 1726, 1727, 1728, 1729, 1730, 1731, 1732, 1733, 1734, 1735, 1736, 1737, 1738, 1739, 1740, 1741, 1742, 1743, 1744, 1745, 1746, 1747, 1748, 1749, 1750, 1751, 1752, 1753, 1754, 1755, 1756, 1757, 1758, 1759, 1760, 1761, 1762, 1763, 1764, 1765, 1766, 1767, 1768, 1769, 1770, 1771, 1772, 1773, 1774, 1775, 1776, 1777, 1778, 1779, 1780, 1781, 1782, 1783, 1784, 1785, 1786, 1787, 1788, 1789, 1790, 1791, 1792, 1793, 1794, 1795, 1796, 1797, 1798, 1799, 1800, 1801, 1802, 1803, 1804, 1805, 1806, 1807, 1808, 1809, 1810, 1811, 1812, 1813, 1814, 1815, 1816, 1817, 1818, 1819, 1820, 1821, 1822, 1823, 1824, 1825, 1826, 1827, 1828, 1829, 1830, 1831, 1832, 1833, 1834, 1835, 1836, 1837, 1838, 1839, 1840, 1841, 1842, 1843, 1844, 1845, 1846, 1847, 1848, 1849, 1850, 1851, 1852, 1853, 1854, 1855, 1856, 1857, 1858, 1859, 1860, 1861, 1862, 1863, 1864, 1865, 1866, 1867, 1868, 1869, 1870, 1871, 1872, 1873, 1874, 1875, 1876, 1877, 1878, 1879, 1880, 1881, 1882, 1883, 1884, 1885, 1886, 1887, 1888, 1889, 1890, 1891, 1892, 1893, 1894, 1895, 1896, 1897, 1898, 1899, 1900, 1901, 1902, 1903, 1904, 1905, 1906, 1907, 1908, 1909, 1910, 1911, 1912, 1913, 1914, 1915, 1916, 1917, 1918, 1919, 1920, 1921, 1922, 1923, 1924, 1925, 1926, 1927, 1928, 1929, 1930, 1931, 1932, 1933, 1934, 1935, 1936, 1937, 1938, 1939, 1940, 1941, 1942, 1943, 1944, 1945, 1946, 1947, 1948, 1949, 1950, 1951, 1952, 1953, 1954, 1955, 1956, 1957, 1958, 1959, 1960, 1961, 1962, 1963, 1964, 1965, 1966, 1967, 1968, 1969, 1970, 1971, 1972, 1973, 1974, 1975, 1976, 1977, 1978, 1979, 1980, 1981, 1982, 1983, 1984, 1985, 1986, 1987, 1988, 1989, 1990, 1991, 1992, 1993, 1994, 1995, 1996, 1997, 1998, 1999, 2000, 2001, 2002, 2003, 2004, 2005, 2006, 2007, 2008, 2009, 2010, 2011, 2012, 2013, 2014, 2015, 2016, 2017, 2018, 2019, 2020, 2021, 2022, 2023, 2024, 2025, 2026, 2027, 2028, 2029, 2030, 2031, 2032, 2033, 2034, 2035, 2036, 2037, 2038, 2039, 2040, 2041, 2042, 2043, 2044, 2045, 2046, 2047, 2048, 2049, 2050, 2051, 2052, 2053, 2054, 2055, 2056, 2057, 2058, 2059, 2060, 2061, 2062, 2063, 2064, 2065, 2066, 2067, 2068, 2069, 2070, 2071, 2072, 2073, 2074, 2075, 2076, 2077, 2078, 2079, 2080, 2081, 2082, 2083, 2084, 2085, 2086, 2087, 2088, 2089, 2090, 2091, 2092, 2093, 2094, 2095, 2096, 2097, 2098, 2099, 2100, 2101, 2102, 2103, 2104, 2105, 2106, 2107, 2108, 2109, 2110, 2111, 2112, 2113, 2114, 2115, 2116, 2117, 2118, 2119, 2120, 2121, 2122, 2123, 2124, 2125, 2126, 2127, 2128, 2129, 2130, 2131, 2132, 2133, 2134, 2135, 2136, 2137, 2138, 2139, 2140, 2141, 2142, 2143, 2144, 2145, 2146, 2147, 2148, 2149, 2150, 2151, 2152, 2153, 2154, 2155, 2156, 2157, 2158, 2159, 2160, 2161, 2162, 2163, 2164, 2165, 2166, 2167, 2168, 2169, 2170, 2171, 2172, 2173, 2174, 2175, 2176, 2177, 2178, 2179, 2180, 2181, 2182, 2183, 2184, 2185, 2186, 2187, 2188, 2189, 2190, 2191, 2192, 2193, 2194, 2195, 2196, 2197, 2198, 2199, 2200, 2201, 2202, 2203, 2204, 2205, 2206, 2207, 2208, 2209, 2210, 2211, 2212, 2213, 2214, 2215, 2216, 2217, 2218, 2219, 2220, 2221, 2222, 2223, 2224, 2225, 2226, 2227, 2228, 2229, 2230, 2231, 2232, 2233, 2234, 2235, 2236, 2237, 2238, 2239, 2240, 2241, 2242, 2243, 2244, 2245, 2246, 2247, 2248, 2249, 2250, 2251, 2252, 2253, 2254, 2255, 2256, 2257, 2258, 2259, 2260, 2261, 2262, 2263, 2264, 2265, 2266, 2267, 2268, 2269, 2270, 2271, 2272, 2273, 2274, 2275, 2276, 2277, 2278, 2279, 2280, 2281, 2282, 2283, 2284, 2285, 2286, 2287, 2288, 2289, 2290, 2291, 2292, 2293, 2294, 2295, 2296, 2297, 2299, 2300, 2301, 2302, 2303, 2304, 2305, 2306, 2307, 2308, 2309, 2310, 2311, 2312, 2313, 2314, 2315, 2316, 2317, 2318, 2319, 2320, 2321, 2322, 2323, 2324, 2325, 2326, 2327, 2328, 2329, 2330, 2331, 2332, 2333, 2334, 2335, 2336, 2337, 2338, 2339, 2340, 2341, 2342, 2343, 2344, 2345, 2346, 2347, 2348, 2349, 2350, 2351, 2352, 2353, 2354, 2355, 2356, 2357, 2358, 2359, 2360, 2361, 2362, 2363, 2364, 2365, 2366, 2367, 2368, 2369, 2370, 2371, 2372, 2373, 2374, 2375, 2376, 2377, 2378, 2379, 2380, 2381, 2382, 2383, 2384, 2385, 2386, 2387, 2388, 2389, 2390, 2391, 2392, 2393, 2394, 2395, 2396, 2397, 2398, 2399, 2400, 2401, 2402, 2403, 2404, 2405, 2406, 2407, 2408, 2409, 2410, 2411, 2412, 2413, 2414, 2415, 2416, 2417, 2418, 2419, 2420, 2421, 2422, 2423, 2424, 2425, 2426, 2427, 2428, 2429, 2430, 2431, 2432, 2433, 2434, 2435, 2436, 2437, 2438, 2439, 2440, 2441, 2442, 2443, 2444, 2445, 2446, 2447, 2448, 2449, 2450, 2451, 2452, 2453, 2454, 2455, 2456, 2457, 2458, 2459, 2460, 2461, 2462, 2463, 2464, 2465, 2466, 2467, 2468, 2469, 2470, 2471, 2472, 2473, 2474, 2475, 2476, 2477, 2478, 2479, 2480, 2481, 2482, 2483, 2484, 2485, 2486, 2487, 2488, 2489, 2490, 2491, 2492, 2493, 2494, 2495, 2496, 2497, 2498, ]
Packed Weights: [324, 151, 651, 73, 536, 366, 58, 508, 38, 434, 70, 91, 425, 827, 124, 224, 628, 948, 578, 397, 977, 47, 859, 290, 145, 118, 309, 817, 181, 582, 639, 373, 548, 63, 60, 206, 681, 428, 315, 586, 454, 300, 795, 699, 245, 575, 526, 876, 730, 288, 981, 119, 419, 758, 152, 489, 40, 669, 765, 574, 876, 314, 696, 595, 580, 457, 840, 945, 475, 665, 61, 702, 648, 994, 822, 285, 386, 669, 23, 462, 169, 118, 59, 769, 130, 248, 391, 872, 81, 450, 550, 884, 820, 864, 279, 416, 359, 885, 958, 151, 177, 232, 234, 485, 590, 263, 5, 419, 370, 567, 954, 691, 516, 618, 677, 54, 900, 780, 875, 798, 393, 399, 104, 635, 63, 68, 209, 163, 341, 53, 1, 152, 102, 364, 26, 875, 615, 149, 253, 348, 365, 123, 849, 994, 466, 484, 86, 103, 343, 265, 829, 162, 24, 951, 529, 147, 544, 28, 529, 979, 864, 697, 262, 367, 168, 772, 533, 780, 330, 224, 812, 985, 853, 807, 819, 740, 227, 518, 356, 29, 28, 280, 260, 693, 957, 448, 938, 989, 956, 365, 221, 227, 197, 205, 625, 901, 841, 480, 653, 800, 85, 661, 910, 783, 751, 479, 179, 790, 333, 801, 972, 396, 402, 947, 725, 171, 128, 152, 905, 807, 147, 827, 981, 658, 351, 549, 131, 15, 971, 650, 527, 934, 434, 872, 827, 212, 252, 293, 241, 587, 260, 420, 132, 911, 354, 459, 584, 905, 421, 918, 502, 532, 524, 19, 441, 184, 4, 800, 173, 474, 726, 557, 326, 519, 556, 785, 107, 561, 249, 277, 773, 508, 562, 760, 913, 444, 613, 506, 513, 693, 453, 534, 479, 942, 700, 877, 943, 260, 560, 944, 840, 138, 122, 443, 73, 241, 74, 670, 784, 898, 155, 717, 661, 143, 883, 968, 220, 953, 399, 488, 990, 833, 162, 432, 516, 340, 196, 319, 723, 20, 555, 441, 19, 332, 624, 513, 65, 986, 789, 972, 105, 266, 40, 779, 271, 130, 423, 912, 819, 259, 150, 920, 571, 701, 90, 58, 689, 426, 73, 939, 635, 802, 84, 857, 67, 863, 454, 340, 554, 927, 268, 130, 527, 239, 110, 162, 51, 202, 312, 306, 760, 290, 501, 178, 348, 19, 251, 16, 734, 552, 190, 475, 935, 107, 819, 433, 496, 835, 394, 507, 688, 983, 343, 833, 707, 636, 405, 348, 55, 130, 71, 741, 256, 164, 85, 842, 871, 671, 282, 243, 294, 460, 158, 446, 264, 962, 973, 548, 245, 966, 310, 357, 2, 382, 475, 503, 201, 505, 5, 265, 90, 400, 42, 23, 305, 233, 586, 530, 751, 658, 716, 880, 390, 327, 985, 150, 725, 644, 44, 836, 892, 628, 734, 813, 140, 524, 505, 835, 805, 827, 585, 893, 683, 694, 230, 32, 134, 361, 105, 836, 559, 628, 627, 681, 490, 4, 798, 749, 503, 536, 660, 67, 737, 253, 75, 266, 730, 206, 740, 976, 494, 383, 480, 684, 767, 617, 643, 78, 148, 254, 744, 305, 568, 13, 61, 269, 673, 693, 676, 291, 517, 465, 467, 119, 894, 200, 979, 937, 18, 459, 820, 969, 450, 269, 210, 946, 211, 582, 142, 525, 953, 133, 821, 509, 887, 704, 232, 898, 487, 25, 4, 492, 451, 302, 141, 344, 317, 841, 2, 751, 840, 121, 927, 714, 902, 290, 373, 393, 999, 590, 361, 429, 276, 49, 102, 835, 286, 936, 250, 266, 511, 190, 374, 957, 885, 812, 631, 914, 941, 550, 720, 50, 733, 451, 753, 645, 287, 49, 927, 128, 473, 344, 298, 740, 977, 261, 656, 301, 558, 395, 168, 162, 208, 906, 498, 221, 907, 997, 450, 140, 193, 91, 342, 92, 240, 259, 570, 888, 750, 413, 414, 525, 377, 339, 63, 278, 968, 126, 504, 630, 863, 216, 272, 249, 400, 446, 954, 849, 873, 22, 33, 710, 896, 474, 588, 1, 392, 927, 826, 856, 973, 249, 110, 155, 523, 683, 942, 722, 648, 765, 458, 552, 40, 783, 233, 920, 646, 304, 128, 252, 637, 699, 113, 71, 525, 583, 389, 224, 602, 11, 302, 461, 959, 645, 884, 476, 235, 248, 961, 705, 308, 22, 499, 675, 421, 258, 668, 926, 227, 35, 339, 421, 683, 199, 798, 740, 505, 206, 970, 312, 821, 231, 222, 761, 295, 952, 496, 188, 224, 418, 666, 949, 147, 394, 213, 975, 142, 52, 61, 394, 899, 884, 733, 998, 932, 330, 186, 936, 747, 32, 665, 379, 374, 332, 170, 3, 280, 352, 956, 124, 965, 208, 357, 822, 823, 433, 50, 474, 373, 920, 194, 365, 897, 31, 411, 812, 767, 41, 35, 63, 921, 258, 748, 899, 340, 273, 958, 617, 263, 717, 317, 276, 4, 756, 917, 634, 944, 25, 234, 476, 957, 954, 387, 252, 430, 494, 929, 183, 803, 739, 823, 773, 608, 328, 320, 362, 783, 80, 198, 753, 248, 65, 34, 553, 326, 981, 884, 988, 265, 85, 97, 499, 710, 447, 235, 417, 621, 675, 748, 847, 665, 122, 841, 294, 567, 373, 739, 200, 248, 246, 154, 885, 579, 327, 397, 993, 508, 232, 809, 654, 991, 103, 475, 820, 841, 915, 41, 294, 120, 190, 973, 584, 931, 373, 867, 450, 260, 778, 946, 106, 597, 620, 218, 369, 142, 204, 255, 600, 652, 204, 12, 328, 679, 186, 313, 204, 796, 549, 64, 102, 396, 551, 640, 92, 164, 696, 410, 284, 308, 954, 313, 567, 358, 417, 865, 997, 364, 198, 729, 204, 6, 902, 424, 821, 407, 883, 461, 163, 15, 552, 641, 910, 90, 623, 371, 505, 146, 284, 522, 926, 109, 491, 805, 967, 198, 127, 944, 976, 483, 54, 927, 388, 905, 621, 825, 161, 786, 223, 405, 847, 830, 183, 219, 400, 518, 384, 124, 248, 725, 898, 42, 563, 758, 39, 839, 118, 600, 551, 628, 307, 421, 583, 426, 659, 447, 439, 24, 619, 490, 236, 764, 780, 459, 180, 474, 108, 129, 431, 92, 442, 511, 41, 637, 83, 734, 778, 512, 55, 504, 378, 951, 137, 858, 997, 733, 815, 194, 982, 492, 957, 917, 166, 789, 931, 66, 351, 757, 159, 897, 275, 816, 144, 503, 920, 209, 263, 507, 320, 37, 183, 162, 937, 680, 896, 169, 785, 116, 531, 637, 360, 873, 556, 581, 883, 105, 993, 630, 395, 798, 265, 991, 578, 361, 765, 443, 177, 744, 49, 820, 254, 640, 985, 586, 664, 313, 2, 34, 150, 617, 433, 513, 896, 133, 228, 654, 23, 3, 355, 107, 358, 225, 584, 590, 205, 624, 475, 135, 937, 244, 150, 96, 639, 872, 783, 402, 265, 12, 645, 563, 351, 646, 444, 938, 734, 249, 904, 45, 532, 406, 238, 59, 779, 13, 551, 941, 143, 200, 609, 507, 642, 814, 175, 310, 301, 49, 890, 783, 716, 7, 845, 746, 466, 742, 453, 226, 106, 233, 39, 336, 750, 696, 846, 712, 266, 554, 437, 789, 524, 266, 643, 966, 217, 881, 16, 261, 237, 744, 945, 747, 327, 881, 329, 240, 908, 631, 693, 666, 980, 470, 840, 698, 858, 438, 725, 571, 308, 212, 623, 78, 911, 145, 27, 107, 929, 345, 142, 29, 42, 693, 634, 698, 737, 66, 591, 364, 818, 820, 892, 66, 868, 915, 945, 108, 206, 112, 35, 848, 813, 635, 826, 632, 288, 100, 98, 758, 205, 320, 424, 21, 257, 283, 716, 369, 321, 964, 504, 852, 619, 31, 413, 437, 774, 347, 705, 538, 217, 863, 91, 820, 171, 2, 203, 763, 978, 5, 491, 492, 797, 185, 495, 348, 832, 261, 944, 284, 215, 700, 499, 110, 637, 81, 788, 698, 787, 628, 356, 402, 395, 891, 87, 889, 26, 207, 264, 902, 502, 380, 884, 234, 461, 532, 755, 753, 647, 349, 327, 156, 844, 663, 742, 170, 439, 774, 580, 127, 463, 886, 238, 192, 302, 704, 844, 155, 156, 248, 327, 523, 161, 329, 190, 976, 729, 102, 963, 102, 385, 984, 795, 734, 435, 197, 638, 107, 207, 389, 34, 400, 792, 694, 501, 633, 464, 142, 604, 405, 741, 909, 431, 574, 750, 422, 229, 723, 881, 775, 701, 853, 680, 642, 454, 314, 629, 98, 420, 783, 714, 630, 251, 424, 456, 622, 410, 676, 931, 184, 655, 779, 389, 490, 975, 39, 544, 161, 782, 941, 520, 102, 575, 542, 718, 513, 640, 829, 522, 411, 948, 211, 685, 393, 763, 123, 985, 356, 57, 275, 400, 14, 419, 421, 699, 353, 266, 225, 742, 940, 528, 219, 802, 392, 213, 130, 777, 810, 635, 470, 563, 226, 964, 354, 639, 819, 817, 469, 295, 549, 126, 834, 355, 851, 268, 377, 254, 427, 186, 3, 722, 282, 245, 302, 480, 429, 638, 660, 363, 929, 855, 58, 828, 906, 785, 141, 832, 634, 15, 12, 952, 656, 251, 102, 143, 234, 777, 347, 153, 905, 792, 168, 892, 609, 782, 669, 894, 789, 839, 198, 693, 531, 742, 439, 883, 556, 265, 235, 140, 494, 59, 468, 145, 492, 499, 540, 863, 7, 841, 468, 563, 666, 841, 375, 419, 961, 76, 638, 637, 29, 610, 683, 932, 331, 982, 511, 485, 898, 34, 719, 626, 339, 862, 367, 475, 526, 771, 211, 436, 423, 555, 827, 293, 828, 404, 504, 272, 507, 975, 655, 792, 331, 318, 300, 587, 635, 785, 41, 723, 886, 546, 50, 301, 7, 190, 922, 609, 659, 790, 910, 612, 617, 627, 697, 597, 681, 213, 668, 458, 763, 102, 182, 37, 775, 915, 656, 369, 823, 787, 563, 259, 303, 422, 319, 431, 642, 934, 55, 568, 40, 119, 811, 576, 919, 447, 15, 388, 592, 938, 981, 476, 413, 103, 645, 213, 152, 16, 5, 684, 122, 967, 89, 870, 129, 18, 720, 243, 734, 188, 51, 775, 714, 856, 730, 85, 629, 710, 461, 933, 255, 965, 718, 12, 15, 651, 818, 80, 312, 730, 166, 861, 487, 60, 368, 575, 439, 677, 145, 798, 364, 645, 630, 418, 386, 787, 945, 785, 567, 293, 61, 974, 704, 828, 333, 606, 978, 832, 602, 309, 429, 889, 377, 685, 602, 897, 808, 284, 2, 264, 423, 587, 816, 888, 43, 834, 812, 868, 572, 274, 852, 808, 685, 914, 347, 86, 554, 798, 201, 751, 932, 235, 607, 678, 466, 207, 255, 752, 792, 460, 88, 807, 773, 233, 580, 897, 886, 522, 477, 590, 190, 193, 181, 702, 363, 565, 403, 518, 150, 45, 998, 375, 107, 633, 788, 157, 598, 345, 520, 21, 34, 991, 867, 487, 568, 262, 780, 426, 947, 768, 819, 964, 254, 38, 201, 181, 84, 51, 558, 871, 459, 948, 910, 65, 599, 398, 120, 960, 258, 565, 641, 957, 670, 394, 449, 160, 966, 992, 222, 39, 256, 353, 903, 905, 838, 48, 787, 710, 647, 986, 56, 145, 755, 940, 677, 299, 592, 758, 106, 324, 258, 125, 482, 169, 239, 144, 678, 13, 718, 196, 37, 928, 221, 934, 867, 889, 140, 448, 97, 929, 843, 629, 453, 340, 824, 478, 629, 143, 222, 57, 714, 554, 145, 871, 267, 412, 156, 272, 840, 335, 168, 492, 319, 904, 115, 979, 57, 896, 669, 212, 478, 287, 258, 202, 365, 992, 999, 926, 98, 290, 897, 58, 727, 294, 979, 17, 808, 341, 141, 2, 833, 527, 186, 436, 912, 219, 572, 139, 181, 771, 712, 197, 80, 88, 609, 496, 274, 207, 613, 708, 812, 583, 203, 66, 733, 409, 722, 56, 811, 336, 842, 865, 494, 16, 911, 477, 873, 267, 187, 832, 368, 164, 372, 595, 5, 520, 446, 516, 121, 715, 817, 866, 321, 712, 382, 752, 62, 873, 955, 495, 514, 531, 538, 21, 968, 224, 183, 103, 251, 818, 31, 97, 699, 196, 18, 600, 577, 523, 703, 103, 870, 718, 46, 124, 494, 501, 280, 123, 406, 137, 592, 862, 148, 573, 747, 165, 827, 938, 389, 421, 840, 526, 396, 942, 777, 339, 241, 336, 436, 982, 805, 913, 816, 848, 54, 518, 958, 935, 250, 423, 633, 365, 531, 70, 434, 505, 21, 140, 970, 777, 937, 634, 810, 885, 885, 35, 642, 266, 679, 274, 543, 925, 622, 251, 521, 434, 951, 288, 306, 648, 121, 595, 957, 514, 269, 467, 534, 149, 124, 132, 294, 407, 289, 244, 88, 547, 840, 610, 571, 651, 202, 711, 461, 549, 613, 469, 311, 243, 222, 513, 384, 586, 12, 353, 862, 239, 557, 492, 285, 988, 296, 773, 159, 67, 872, 440, 63, 388, 440, 736, 110, 226, 960, 739, 155, 338, 353, 676, 617, 850, 822, 518, 739, 744, 760, 476, 785, 709, 915, 128, 871, 5, 766, 586, 498, 963, 572, 418, 784, 873, 608, 380, 453, 458, 724, 293, 391, 556, 385, 322, 788, 850, 500, 445, 185, 305, 145, 576, 582, 88, 921, 324, 844, 839, 959, 205, 427, 911, 11, 48, 565, 498, 921, 774, 539, 999, 518, 518, 686, 390, 358, 595, 352, 948, 677, 526, 99, 375, 401, 562, 575, 880, 965, 487, 441, 625, 997, 344, 531, 816, 171, 319, 979, 827, 513, 111, 895, 690, 821, 991, 889, 421, 157, 290, 512, 505, 189, 183, 631, 604, 354, 994, 637, 43, 412, 788, 307, 691, 4, 305, 843, 587, 669, 197, 498, 554, 267, 647, 532, 998, 575, 412, 122, 157, 760, 107, 101, 171, 523, 824, 614, 807, 63, 13, 771, 323, 716, 354, 170, 267, 100, 904, 583, 349, 450, 386, 55, 891, 583, 960, 440, 621, 250, 44, 931, 855, 315, 899, 816, 304, 603, 961, 496, 950, 243, 390, 719, 222, 310, 876, 485, 793, 244, 174, 359, 187, 972, 291, 562, 115, 534, 386, 404, 66, 124, 826, 352, 245, 192, 284, 238, 35, 665, 342, 156, 706, 93, 270, 836, 128, 444, 837, 805, 160, 353, 723, 377, 959, 209, 951, 505, 228, 453, 131, 707, 261, 900, 588, 368, 247, 609, 213, 873, 123, 543, 271, 772, 385, 658, 568, 311, 390, 87, 178, 852, 322, 663, 109, 562, 362, 501, 297, 66, 312, 227, 127, 717, 283, 404, 909, 775, 883, 862, 133, 277, 30, 680, 664, 352, 413, 660, 700, 249, 847, 353, 629, 182, 116, 913, 735, 713, 41, 40, 163, 199, 304, 381, 40, 311, 639, 180, 840, 571, 717, 255, 435, 685, 350, 1, 835, 777, 287, 43, 855, 608, 48, 245, 112, 792, 211, 915, 750, 87, 695, 394, 748, 829, 282, 90, 947, 424, 931, 692, 739, 830, 629, 453, 55, 699, 429, 512, 929, 128, 762, 44, 703, 806, 262, 547, 970, 638, 544, 250, 60, 358, 412, 202, 311, 137, 707, 671, 238, 242, 516, 446, 936, 352, 300, 885, 142, 564, 334, 816, 549, 761, 170, 667, 599, 462, 767, 832, 115, 290, 361, 207, 61, 281, 198, 702, 449, 113, 325, 469, 363, 169, 72, 11, 993, 751, 84, 718, 981, 564, 109, 489, 435, 190, 544, 9, 920, 645, 628, 936, 653, 252, 246, 139, 28, 775, 840, 297, 186, 639, 846, 927, 169, 785, 831, 743, 327, 185, 826, 321, 369, 552, 370, 832, 240, 42, 567, 629, 820, 706, 906, ]
Time Consuming: 0.06249094009399414